Minimize 
 obj: +1 z
 Subject to
cobj: -1 z +64 y#0 +64 y#1 +64 y#2 +64 y#3 +64 y#4 +64 y#5 +64 y#6 +64 y#7 +64 y#8 +64 y#9 +64 y#10 +64 y#11 +64 y#12 +64 y#13 +64 y#14 +64 y#15 +64 y#16 +64 y#17 +64 y#18 +64 y#19 +64 y#20 +64 y#21 +64 y#22 +64 y#23 +64 y#24 +64 y#25 +64 y#26 -32 y#27 -32 y#28 -32 y#29 -64 y#30 -32 y#31 -32 y#32 -64 y#33 -32 y#34 -32 y#35 -64 y#36 -32 y#37 -32 y#38 -64 y#39 -32 y#40 -32 y#41 -64 y#42 -32 y#43 -32 y#44 -64 y#45 -32 y#46 -32 y#47 -64 y#48 -32 y#49 -32 y#50 -64 y#51 -32 y#52 -32 y#53 -64 y#54 -32 y#55 -32 y#56 -64 y#57 -32 y#58 -32 y#59 -64 y#60 -32 y#61 -32 y#62 -64 y#63 -32 y#64 -32 y#65 -64 y#66 -32 y#67 -32 y#68 -64 y#69 -32 y#70 -32 y#71 -64 y#72 -32 y#73 -32 y#74 -64 y#75 -32 y#76 -32 y#77 -64 y#78 -32 y#79 -32 y#80 -64 y#81 -32 y#82 -32 y#83 -64 y#84 -32 y#85 -32 y#86 -64 y#87 -32 y#88 -32 y#89 -64 y#90 -32 y#91 -32 y#92 -64 y#93 -32 y#94 -32 y#95 -64 y#96 -32 y#97 -32 y#98 -64 y#99 -32 y#100 -32 y#101 -64 y#102 -32 y#103 -32 y#104 -64 y#105 -32 y#106 -32 y#107 -32 y#108 +16 y#109 +24 y#110 +16 y#111 +32 y#112 +48 y#113 +16 y#114 +48 y#115 +48 y#116 +16 y#117 +48 y#118 +48 y#119 +16 y#120 +48 y#121 +48 y#122 +16 y#123 +48 y#124 +48 y#125 +16 y#126 +48 y#127 +48 y#128 +16 y#129 +48 y#130 +48 y#131 +16 y#132 +48 y#133 +48 y#134 +16 y#135 +48 y#136 +48 y#137 +16 y#138 +48 y#139 +48 y#140 +16 y#141 +48 y#142 +48 y#143 +16 y#144 +48 y#145 +48 y#146 +16 y#147 +48 y#148 +48 y#149 +16 y#150 +48 y#151 +48 y#152 +16 y#153 +48 y#154 +48 y#155 +16 y#156 +48 y#157 +48 y#158 +16 y#159 +48 y#160 +48 y#161 +16 y#162 +48 y#163 +48 y#164 +16 y#165 +48 y#166 +48 y#167 +16 y#168 +48 y#169 +48 y#170 +16 y#171 +48 y#172 +48 y#173 +16 y#174 +48 y#175 +48 y#176 +16 y#177 +48 y#178 +48 y#179 +16 y#180 +48 y#181 +48 y#182 +16 y#183 +48 y#184 +48 y#185 +16 y#186 +48 y#187 +48 y#188 +16 y#189 +32 y#190 +24 y#191 +16 y#192 -12 y#193 -24 y#194 -36 y#195 -48 y#196 -48 y#197 -48 y#198 -48 y#199 -48 y#200 -48 y#201 -48 y#202 -48 y#203 -48 y#204 -48 y#205 -48 y#206 -48 y#207 -48 y#208 -48 y#209 -48 y#210 -48 y#211 -48 y#212 -48 y#213 -48 y#214 -48 y#215 -48 y#216 -48 y#217 -48 y#218 -48 y#219 -36 y#220 -24 y#221 -12 y#222 <= 0
cst0: y#0 - x#1 <= 0
cst1: y#0 - x#2 <= 0
cst2: y#0 - x#3 <= 0
cst3: y#0 - x#4 <= 0
cst4: x#1 + x#2 + x#3 + x#4 - y#0 <= 3
cst5: y#1 - x#2 <= 0
cst6: y#1 - x#3 <= 0
cst7: y#1 - x#4 <= 0
cst8: y#1 - x#5 <= 0
cst9: x#2 + x#3 + x#4 + x#5 - y#1 <= 3
cst10: y#2 - x#3 <= 0
cst11: y#2 - x#4 <= 0
cst12: y#2 - x#5 <= 0
cst13: y#2 - x#6 <= 0
cst14: x#3 + x#4 + x#5 + x#6 - y#2 <= 3
cst15: y#3 - x#4 <= 0
cst16: y#3 - x#5 <= 0
cst17: y#3 - x#6 <= 0
cst18: y#3 - x#7 <= 0
cst19: x#4 + x#5 + x#6 + x#7 - y#3 <= 3
cst20: y#4 - x#5 <= 0
cst21: y#4 - x#6 <= 0
cst22: y#4 - x#7 <= 0
cst23: y#4 - x#8 <= 0
cst24: x#5 + x#6 + x#7 + x#8 - y#4 <= 3
cst25: y#5 - x#6 <= 0
cst26: y#5 - x#7 <= 0
cst27: y#5 - x#8 <= 0
cst28: y#5 - x#9 <= 0
cst29: x#6 + x#7 + x#8 + x#9 - y#5 <= 3
cst30: y#6 - x#7 <= 0
cst31: y#6 - x#8 <= 0
cst32: y#6 - x#9 <= 0
cst33: y#6 - x#10 <= 0
cst34: x#7 + x#8 + x#9 + x#10 - y#6 <= 3
cst35: y#7 - x#8 <= 0
cst36: y#7 - x#9 <= 0
cst37: y#7 - x#10 <= 0
cst38: y#7 - x#11 <= 0
cst39: x#8 + x#9 + x#10 + x#11 - y#7 <= 3
cst40: y#8 - x#9 <= 0
cst41: y#8 - x#10 <= 0
cst42: y#8 - x#11 <= 0
cst43: y#8 - x#12 <= 0
cst44: x#9 + x#10 + x#11 + x#12 - y#8 <= 3
cst45: y#9 - x#10 <= 0
cst46: y#9 - x#11 <= 0
cst47: y#9 - x#12 <= 0
cst48: y#9 - x#13 <= 0
cst49: x#10 + x#11 + x#12 + x#13 - y#9 <= 3
cst50: y#10 - x#11 <= 0
cst51: y#10 - x#12 <= 0
cst52: y#10 - x#13 <= 0
cst53: y#10 - x#14 <= 0
cst54: x#11 + x#12 + x#13 + x#14 - y#10 <= 3
cst55: y#11 - x#12 <= 0
cst56: y#11 - x#13 <= 0
cst57: y#11 - x#14 <= 0
cst58: y#11 - x#15 <= 0
cst59: x#12 + x#13 + x#14 + x#15 - y#11 <= 3
cst60: y#12 - x#13 <= 0
cst61: y#12 - x#14 <= 0
cst62: y#12 - x#15 <= 0
cst63: y#12 - x#16 <= 0
cst64: x#13 + x#14 + x#15 + x#16 - y#12 <= 3
cst65: y#13 - x#14 <= 0
cst66: y#13 - x#15 <= 0
cst67: y#13 - x#16 <= 0
cst68: y#13 - x#17 <= 0
cst69: x#14 + x#15 + x#16 + x#17 - y#13 <= 3
cst70: y#14 - x#15 <= 0
cst71: y#14 - x#16 <= 0
cst72: y#14 - x#17 <= 0
cst73: y#14 - x#18 <= 0
cst74: x#15 + x#16 + x#17 + x#18 - y#14 <= 3
cst75: y#15 - x#16 <= 0
cst76: y#15 - x#17 <= 0
cst77: y#15 - x#18 <= 0
cst78: y#15 - x#19 <= 0
cst79: x#16 + x#17 + x#18 + x#19 - y#15 <= 3
cst80: y#16 - x#17 <= 0
cst81: y#16 - x#18 <= 0
cst82: y#16 - x#19 <= 0
cst83: y#16 - x#20 <= 0
cst84: x#17 + x#18 + x#19 + x#20 - y#16 <= 3
cst85: y#17 - x#18 <= 0
cst86: y#17 - x#19 <= 0
cst87: y#17 - x#20 <= 0
cst88: y#17 - x#21 <= 0
cst89: x#18 + x#19 + x#20 + x#21 - y#17 <= 3
cst90: y#18 - x#19 <= 0
cst91: y#18 - x#20 <= 0
cst92: y#18 - x#21 <= 0
cst93: y#18 - x#22 <= 0
cst94: x#19 + x#20 + x#21 + x#22 - y#18 <= 3
cst95: y#19 - x#20 <= 0
cst96: y#19 - x#21 <= 0
cst97: y#19 - x#22 <= 0
cst98: y#19 - x#23 <= 0
cst99: x#20 + x#21 + x#22 + x#23 - y#19 <= 3
cst100: y#20 - x#21 <= 0
cst101: y#20 - x#22 <= 0
cst102: y#20 - x#23 <= 0
cst103: y#20 - x#24 <= 0
cst104: x#21 + x#22 + x#23 + x#24 - y#20 <= 3
cst105: y#21 - x#22 <= 0
cst106: y#21 - x#23 <= 0
cst107: y#21 - x#24 <= 0
cst108: y#21 - x#25 <= 0
cst109: x#22 + x#23 + x#24 + x#25 - y#21 <= 3
cst110: y#22 - x#23 <= 0
cst111: y#22 - x#24 <= 0
cst112: y#22 - x#25 <= 0
cst113: y#22 - x#26 <= 0
cst114: x#23 + x#24 + x#25 + x#26 - y#22 <= 3
cst115: y#23 - x#24 <= 0
cst116: y#23 - x#25 <= 0
cst117: y#23 - x#26 <= 0
cst118: y#23 - x#27 <= 0
cst119: x#24 + x#25 + x#26 + x#27 - y#23 <= 3
cst120: y#24 - x#25 <= 0
cst121: y#24 - x#26 <= 0
cst122: y#24 - x#27 <= 0
cst123: y#24 - x#28 <= 0
cst124: x#25 + x#26 + x#27 + x#28 - y#24 <= 3
cst125: y#25 - x#26 <= 0
cst126: y#25 - x#27 <= 0
cst127: y#25 - x#28 <= 0
cst128: y#25 - x#29 <= 0
cst129: x#26 + x#27 + x#28 + x#29 - y#25 <= 3
cst130: y#26 - x#27 <= 0
cst131: y#26 - x#28 <= 0
cst132: y#26 - x#29 <= 0
cst133: y#26 - x#30 <= 0
cst134: x#27 + x#28 + x#29 + x#30 - y#26 <= 3
cst135: y#27 - x#1 <= 0
cst136: y#27 - x#2 <= 0
cst137: y#27 - x#3 <= 0
cst138: x#1 + x#2 + x#3 - y#27 <= 2
cst139: y#28 - x#1 <= 0
cst140: y#28 - x#2 <= 0
cst141: y#28 - x#4 <= 0
cst142: x#1 + x#2 + x#4 - y#28 <= 2
cst143: y#29 - x#1 <= 0
cst144: y#29 - x#3 <= 0
cst145: y#29 - x#4 <= 0
cst146: x#1 + x#3 + x#4 - y#29 <= 2
cst147: y#30 - x#2 <= 0
cst148: y#30 - x#3 <= 0
cst149: y#30 - x#4 <= 0
cst150: x#2 + x#3 + x#4 - y#30 <= 2
cst151: y#31 - x#2 <= 0
cst152: y#31 - x#3 <= 0
cst153: y#31 - x#5 <= 0
cst154: x#2 + x#3 + x#5 - y#31 <= 2
cst155: y#32 - x#2 <= 0
cst156: y#32 - x#4 <= 0
cst157: y#32 - x#5 <= 0
cst158: x#2 + x#4 + x#5 - y#32 <= 2
cst159: y#33 - x#3 <= 0
cst160: y#33 - x#4 <= 0
cst161: y#33 - x#5 <= 0
cst162: x#3 + x#4 + x#5 - y#33 <= 2
cst163: y#34 - x#3 <= 0
cst164: y#34 - x#4 <= 0
cst165: y#34 - x#6 <= 0
cst166: x#3 + x#4 + x#6 - y#34 <= 2
cst167: y#35 - x#3 <= 0
cst168: y#35 - x#5 <= 0
cst169: y#35 - x#6 <= 0
cst170: x#3 + x#5 + x#6 - y#35 <= 2
cst171: y#36 - x#4 <= 0
cst172: y#36 - x#5 <= 0
cst173: y#36 - x#6 <= 0
cst174: x#4 + x#5 + x#6 - y#36 <= 2
cst175: y#37 - x#4 <= 0
cst176: y#37 - x#5 <= 0
cst177: y#37 - x#7 <= 0
cst178: x#4 + x#5 + x#7 - y#37 <= 2
cst179: y#38 - x#4 <= 0
cst180: y#38 - x#6 <= 0
cst181: y#38 - x#7 <= 0
cst182: x#4 + x#6 + x#7 - y#38 <= 2
cst183: y#39 - x#5 <= 0
cst184: y#39 - x#6 <= 0
cst185: y#39 - x#7 <= 0
cst186: x#5 + x#6 + x#7 - y#39 <= 2
cst187: y#40 - x#5 <= 0
cst188: y#40 - x#6 <= 0
cst189: y#40 - x#8 <= 0
cst190: x#5 + x#6 + x#8 - y#40 <= 2
cst191: y#41 - x#5 <= 0
cst192: y#41 - x#7 <= 0
cst193: y#41 - x#8 <= 0
cst194: x#5 + x#7 + x#8 - y#41 <= 2
cst195: y#42 - x#6 <= 0
cst196: y#42 - x#7 <= 0
cst197: y#42 - x#8 <= 0
cst198: x#6 + x#7 + x#8 - y#42 <= 2
cst199: y#43 - x#6 <= 0
cst200: y#43 - x#7 <= 0
cst201: y#43 - x#9 <= 0
cst202: x#6 + x#7 + x#9 - y#43 <= 2
cst203: y#44 - x#6 <= 0
cst204: y#44 - x#8 <= 0
cst205: y#44 - x#9 <= 0
cst206: x#6 + x#8 + x#9 - y#44 <= 2
cst207: y#45 - x#7 <= 0
cst208: y#45 - x#8 <= 0
cst209: y#45 - x#9 <= 0
cst210: x#7 + x#8 + x#9 - y#45 <= 2
cst211: y#46 - x#7 <= 0
cst212: y#46 - x#8 <= 0
cst213: y#46 - x#10 <= 0
cst214: x#7 + x#8 + x#10 - y#46 <= 2
cst215: y#47 - x#7 <= 0
cst216: y#47 - x#9 <= 0
cst217: y#47 - x#10 <= 0
cst218: x#7 + x#9 + x#10 - y#47 <= 2
cst219: y#48 - x#8 <= 0
cst220: y#48 - x#9 <= 0
cst221: y#48 - x#10 <= 0
cst222: x#8 + x#9 + x#10 - y#48 <= 2
cst223: y#49 - x#8 <= 0
cst224: y#49 - x#9 <= 0
cst225: y#49 - x#11 <= 0
cst226: x#8 + x#9 + x#11 - y#49 <= 2
cst227: y#50 - x#8 <= 0
cst228: y#50 - x#10 <= 0
cst229: y#50 - x#11 <= 0
cst230: x#8 + x#10 + x#11 - y#50 <= 2
cst231: y#51 - x#9 <= 0
cst232: y#51 - x#10 <= 0
cst233: y#51 - x#11 <= 0
cst234: x#9 + x#10 + x#11 - y#51 <= 2
cst235: y#52 - x#9 <= 0
cst236: y#52 - x#10 <= 0
cst237: y#52 - x#12 <= 0
cst238: x#9 + x#10 + x#12 - y#52 <= 2
cst239: y#53 - x#9 <= 0
cst240: y#53 - x#11 <= 0
cst241: y#53 - x#12 <= 0
cst242: x#9 + x#11 + x#12 - y#53 <= 2
cst243: y#54 - x#10 <= 0
cst244: y#54 - x#11 <= 0
cst245: y#54 - x#12 <= 0
cst246: x#10 + x#11 + x#12 - y#54 <= 2
cst247: y#55 - x#10 <= 0
cst248: y#55 - x#11 <= 0
cst249: y#55 - x#13 <= 0
cst250: x#10 + x#11 + x#13 - y#55 <= 2
cst251: y#56 - x#10 <= 0
cst252: y#56 - x#12 <= 0
cst253: y#56 - x#13 <= 0
cst254: x#10 + x#12 + x#13 - y#56 <= 2
cst255: y#57 - x#11 <= 0
cst256: y#57 - x#12 <= 0
cst257: y#57 - x#13 <= 0
cst258: x#11 + x#12 + x#13 - y#57 <= 2
cst259: y#58 - x#11 <= 0
cst260: y#58 - x#12 <= 0
cst261: y#58 - x#14 <= 0
cst262: x#11 + x#12 + x#14 - y#58 <= 2
cst263: y#59 - x#11 <= 0
cst264: y#59 - x#13 <= 0
cst265: y#59 - x#14 <= 0
cst266: x#11 + x#13 + x#14 - y#59 <= 2
cst267: y#60 - x#12 <= 0
cst268: y#60 - x#13 <= 0
cst269: y#60 - x#14 <= 0
cst270: x#12 + x#13 + x#14 - y#60 <= 2
cst271: y#61 - x#12 <= 0
cst272: y#61 - x#13 <= 0
cst273: y#61 - x#15 <= 0
cst274: x#12 + x#13 + x#15 - y#61 <= 2
cst275: y#62 - x#12 <= 0
cst276: y#62 - x#14 <= 0
cst277: y#62 - x#15 <= 0
cst278: x#12 + x#14 + x#15 - y#62 <= 2
cst279: y#63 - x#13 <= 0
cst280: y#63 - x#14 <= 0
cst281: y#63 - x#15 <= 0
cst282: x#13 + x#14 + x#15 - y#63 <= 2
cst283: y#64 - x#13 <= 0
cst284: y#64 - x#14 <= 0
cst285: y#64 - x#16 <= 0
cst286: x#13 + x#14 + x#16 - y#64 <= 2
cst287: y#65 - x#13 <= 0
cst288: y#65 - x#15 <= 0
cst289: y#65 - x#16 <= 0
cst290: x#13 + x#15 + x#16 - y#65 <= 2
cst291: y#66 - x#14 <= 0
cst292: y#66 - x#15 <= 0
cst293: y#66 - x#16 <= 0
cst294: x#14 + x#15 + x#16 - y#66 <= 2
cst295: y#67 - x#14 <= 0
cst296: y#67 - x#15 <= 0
cst297: y#67 - x#17 <= 0
cst298: x#14 + x#15 + x#17 - y#67 <= 2
cst299: y#68 - x#14 <= 0
cst300: y#68 - x#16 <= 0
cst301: y#68 - x#17 <= 0
cst302: x#14 + x#16 + x#17 - y#68 <= 2
cst303: y#69 - x#15 <= 0
cst304: y#69 - x#16 <= 0
cst305: y#69 - x#17 <= 0
cst306: x#15 + x#16 + x#17 - y#69 <= 2
cst307: y#70 - x#15 <= 0
cst308: y#70 - x#16 <= 0
cst309: y#70 - x#18 <= 0
cst310: x#15 + x#16 + x#18 - y#70 <= 2
cst311: y#71 - x#15 <= 0
cst312: y#71 - x#17 <= 0
cst313: y#71 - x#18 <= 0
cst314: x#15 + x#17 + x#18 - y#71 <= 2
cst315: y#72 - x#16 <= 0
cst316: y#72 - x#17 <= 0
cst317: y#72 - x#18 <= 0
cst318: x#16 + x#17 + x#18 - y#72 <= 2
cst319: y#73 - x#16 <= 0
cst320: y#73 - x#17 <= 0
cst321: y#73 - x#19 <= 0
cst322: x#16 + x#17 + x#19 - y#73 <= 2
cst323: y#74 - x#16 <= 0
cst324: y#74 - x#18 <= 0
cst325: y#74 - x#19 <= 0
cst326: x#16 + x#18 + x#19 - y#74 <= 2
cst327: y#75 - x#17 <= 0
cst328: y#75 - x#18 <= 0
cst329: y#75 - x#19 <= 0
cst330: x#17 + x#18 + x#19 - y#75 <= 2
cst331: y#76 - x#17 <= 0
cst332: y#76 - x#18 <= 0
cst333: y#76 - x#20 <= 0
cst334: x#17 + x#18 + x#20 - y#76 <= 2
cst335: y#77 - x#17 <= 0
cst336: y#77 - x#19 <= 0
cst337: y#77 - x#20 <= 0
cst338: x#17 + x#19 + x#20 - y#77 <= 2
cst339: y#78 - x#18 <= 0
cst340: y#78 - x#19 <= 0
cst341: y#78 - x#20 <= 0
cst342: x#18 + x#19 + x#20 - y#78 <= 2
cst343: y#79 - x#18 <= 0
cst344: y#79 - x#19 <= 0
cst345: y#79 - x#21 <= 0
cst346: x#18 + x#19 + x#21 - y#79 <= 2
cst347: y#80 - x#18 <= 0
cst348: y#80 - x#20 <= 0
cst349: y#80 - x#21 <= 0
cst350: x#18 + x#20 + x#21 - y#80 <= 2
cst351: y#81 - x#19 <= 0
cst352: y#81 - x#20 <= 0
cst353: y#81 - x#21 <= 0
cst354: x#19 + x#20 + x#21 - y#81 <= 2
cst355: y#82 - x#19 <= 0
cst356: y#82 - x#20 <= 0
cst357: y#82 - x#22 <= 0
cst358: x#19 + x#20 + x#22 - y#82 <= 2
cst359: y#83 - x#19 <= 0
cst360: y#83 - x#21 <= 0
cst361: y#83 - x#22 <= 0
cst362: x#19 + x#21 + x#22 - y#83 <= 2
cst363: y#84 - x#20 <= 0
cst364: y#84 - x#21 <= 0
cst365: y#84 - x#22 <= 0
cst366: x#20 + x#21 + x#22 - y#84 <= 2
cst367: y#85 - x#20 <= 0
cst368: y#85 - x#21 <= 0
cst369: y#85 - x#23 <= 0
cst370: x#20 + x#21 + x#23 - y#85 <= 2
cst371: y#86 - x#20 <= 0
cst372: y#86 - x#22 <= 0
cst373: y#86 - x#23 <= 0
cst374: x#20 + x#22 + x#23 - y#86 <= 2
cst375: y#87 - x#21 <= 0
cst376: y#87 - x#22 <= 0
cst377: y#87 - x#23 <= 0
cst378: x#21 + x#22 + x#23 - y#87 <= 2
cst379: y#88 - x#21 <= 0
cst380: y#88 - x#22 <= 0
cst381: y#88 - x#24 <= 0
cst382: x#21 + x#22 + x#24 - y#88 <= 2
cst383: y#89 - x#21 <= 0
cst384: y#89 - x#23 <= 0
cst385: y#89 - x#24 <= 0
cst386: x#21 + x#23 + x#24 - y#89 <= 2
cst387: y#90 - x#22 <= 0
cst388: y#90 - x#23 <= 0
cst389: y#90 - x#24 <= 0
cst390: x#22 + x#23 + x#24 - y#90 <= 2
cst391: y#91 - x#22 <= 0
cst392: y#91 - x#23 <= 0
cst393: y#91 - x#25 <= 0
cst394: x#22 + x#23 + x#25 - y#91 <= 2
cst395: y#92 - x#22 <= 0
cst396: y#92 - x#24 <= 0
cst397: y#92 - x#25 <= 0
cst398: x#22 + x#24 + x#25 - y#92 <= 2
cst399: y#93 - x#23 <= 0
cst400: y#93 - x#24 <= 0
cst401: y#93 - x#25 <= 0
cst402: x#23 + x#24 + x#25 - y#93 <= 2
cst403: y#94 - x#23 <= 0
cst404: y#94 - x#24 <= 0
cst405: y#94 - x#26 <= 0
cst406: x#23 + x#24 + x#26 - y#94 <= 2
cst407: y#95 - x#23 <= 0
cst408: y#95 - x#25 <= 0
cst409: y#95 - x#26 <= 0
cst410: x#23 + x#25 + x#26 - y#95 <= 2
cst411: y#96 - x#24 <= 0
cst412: y#96 - x#25 <= 0
cst413: y#96 - x#26 <= 0
cst414: x#24 + x#25 + x#26 - y#96 <= 2
cst415: y#97 - x#24 <= 0
cst416: y#97 - x#25 <= 0
cst417: y#97 - x#27 <= 0
cst418: x#24 + x#25 + x#27 - y#97 <= 2
cst419: y#98 - x#24 <= 0
cst420: y#98 - x#26 <= 0
cst421: y#98 - x#27 <= 0
cst422: x#24 + x#26 + x#27 - y#98 <= 2
cst423: y#99 - x#25 <= 0
cst424: y#99 - x#26 <= 0
cst425: y#99 - x#27 <= 0
cst426: x#25 + x#26 + x#27 - y#99 <= 2
cst427: y#100 - x#25 <= 0
cst428: y#100 - x#26 <= 0
cst429: y#100 - x#28 <= 0
cst430: x#25 + x#26 + x#28 - y#100 <= 2
cst431: y#101 - x#25 <= 0
cst432: y#101 - x#27 <= 0
cst433: y#101 - x#28 <= 0
cst434: x#25 + x#27 + x#28 - y#101 <= 2
cst435: y#102 - x#26 <= 0
cst436: y#102 - x#27 <= 0
cst437: y#102 - x#28 <= 0
cst438: x#26 + x#27 + x#28 - y#102 <= 2
cst439: y#103 - x#26 <= 0
cst440: y#103 - x#27 <= 0
cst441: y#103 - x#29 <= 0
cst442: x#26 + x#27 + x#29 - y#103 <= 2
cst443: y#104 - x#26 <= 0
cst444: y#104 - x#28 <= 0
cst445: y#104 - x#29 <= 0
cst446: x#26 + x#28 + x#29 - y#104 <= 2
cst447: y#105 - x#27 <= 0
cst448: y#105 - x#28 <= 0
cst449: y#105 - x#29 <= 0
cst450: x#27 + x#28 + x#29 - y#105 <= 2
cst451: y#106 - x#27 <= 0
cst452: y#106 - x#28 <= 0
cst453: y#106 - x#30 <= 0
cst454: x#27 + x#28 + x#30 - y#106 <= 2
cst455: y#107 - x#27 <= 0
cst456: y#107 - x#29 <= 0
cst457: y#107 - x#30 <= 0
cst458: x#27 + x#29 + x#30 - y#107 <= 2
cst459: y#108 - x#28 <= 0
cst460: y#108 - x#29 <= 0
cst461: y#108 - x#30 <= 0
cst462: x#28 + x#29 + x#30 - y#108 <= 2
cst463: y#109 - x#1 <= 0
cst464: y#109 - x#2 <= 0
cst465: x#1 + x#2 - y#109 <= 1
cst466: y#110 - x#1 <= 0
cst467: y#110 - x#3 <= 0
cst468: x#1 + x#3 - y#110 <= 1
cst469: y#111 - x#1 <= 0
cst470: y#111 - x#4 <= 0
cst471: x#1 + x#4 - y#111 <= 1
cst472: y#112 - x#2 <= 0
cst473: y#112 - x#3 <= 0
cst474: x#2 + x#3 - y#112 <= 1
cst475: y#113 - x#2 <= 0
cst476: y#113 - x#4 <= 0
cst477: x#2 + x#4 - y#113 <= 1
cst478: y#114 - x#2 <= 0
cst479: y#114 - x#5 <= 0
cst480: x#2 + x#5 - y#114 <= 1
cst481: y#115 - x#3 <= 0
cst482: y#115 - x#4 <= 0
cst483: x#3 + x#4 - y#115 <= 1
cst484: y#116 - x#3 <= 0
cst485: y#116 - x#5 <= 0
cst486: x#3 + x#5 - y#116 <= 1
cst487: y#117 - x#3 <= 0
cst488: y#117 - x#6 <= 0
cst489: x#3 + x#6 - y#117 <= 1
cst490: y#118 - x#4 <= 0
cst491: y#118 - x#5 <= 0
cst492: x#4 + x#5 - y#118 <= 1
cst493: y#119 - x#4 <= 0
cst494: y#119 - x#6 <= 0
cst495: x#4 + x#6 - y#119 <= 1
cst496: y#120 - x#4 <= 0
cst497: y#120 - x#7 <= 0
cst498: x#4 + x#7 - y#120 <= 1
cst499: y#121 - x#5 <= 0
cst500: y#121 - x#6 <= 0
cst501: x#5 + x#6 - y#121 <= 1
cst502: y#122 - x#5 <= 0
cst503: y#122 - x#7 <= 0
cst504: x#5 + x#7 - y#122 <= 1
cst505: y#123 - x#5 <= 0
cst506: y#123 - x#8 <= 0
cst507: x#5 + x#8 - y#123 <= 1
cst508: y#124 - x#6 <= 0
cst509: y#124 - x#7 <= 0
cst510: x#6 + x#7 - y#124 <= 1
cst511: y#125 - x#6 <= 0
cst512: y#125 - x#8 <= 0
cst513: x#6 + x#8 - y#125 <= 1
cst514: y#126 - x#6 <= 0
cst515: y#126 - x#9 <= 0
cst516: x#6 + x#9 - y#126 <= 1
cst517: y#127 - x#7 <= 0
cst518: y#127 - x#8 <= 0
cst519: x#7 + x#8 - y#127 <= 1
cst520: y#128 - x#7 <= 0
cst521: y#128 - x#9 <= 0
cst522: x#7 + x#9 - y#128 <= 1
cst523: y#129 - x#7 <= 0
cst524: y#129 - x#10 <= 0
cst525: x#7 + x#10 - y#129 <= 1
cst526: y#130 - x#8 <= 0
cst527: y#130 - x#9 <= 0
cst528: x#8 + x#9 - y#130 <= 1
cst529: y#131 - x#8 <= 0
cst530: y#131 - x#10 <= 0
cst531: x#8 + x#10 - y#131 <= 1
cst532: y#132 - x#8 <= 0
cst533: y#132 - x#11 <= 0
cst534: x#8 + x#11 - y#132 <= 1
cst535: y#133 - x#9 <= 0
cst536: y#133 - x#10 <= 0
cst537: x#9 + x#10 - y#133 <= 1
cst538: y#134 - x#9 <= 0
cst539: y#134 - x#11 <= 0
cst540: x#9 + x#11 - y#134 <= 1
cst541: y#135 - x#9 <= 0
cst542: y#135 - x#12 <= 0
cst543: x#9 + x#12 - y#135 <= 1
cst544: y#136 - x#10 <= 0
cst545: y#136 - x#11 <= 0
cst546: x#10 + x#11 - y#136 <= 1
cst547: y#137 - x#10 <= 0
cst548: y#137 - x#12 <= 0
cst549: x#10 + x#12 - y#137 <= 1
cst550: y#138 - x#10 <= 0
cst551: y#138 - x#13 <= 0
cst552: x#10 + x#13 - y#138 <= 1
cst553: y#139 - x#11 <= 0
cst554: y#139 - x#12 <= 0
cst555: x#11 + x#12 - y#139 <= 1
cst556: y#140 - x#11 <= 0
cst557: y#140 - x#13 <= 0
cst558: x#11 + x#13 - y#140 <= 1
cst559: y#141 - x#11 <= 0
cst560: y#141 - x#14 <= 0
cst561: x#11 + x#14 - y#141 <= 1
cst562: y#142 - x#12 <= 0
cst563: y#142 - x#13 <= 0
cst564: x#12 + x#13 - y#142 <= 1
cst565: y#143 - x#12 <= 0
cst566: y#143 - x#14 <= 0
cst567: x#12 + x#14 - y#143 <= 1
cst568: y#144 - x#12 <= 0
cst569: y#144 - x#15 <= 0
cst570: x#12 + x#15 - y#144 <= 1
cst571: y#145 - x#13 <= 0
cst572: y#145 - x#14 <= 0
cst573: x#13 + x#14 - y#145 <= 1
cst574: y#146 - x#13 <= 0
cst575: y#146 - x#15 <= 0
cst576: x#13 + x#15 - y#146 <= 1
cst577: y#147 - x#13 <= 0
cst578: y#147 - x#16 <= 0
cst579: x#13 + x#16 - y#147 <= 1
cst580: y#148 - x#14 <= 0
cst581: y#148 - x#15 <= 0
cst582: x#14 + x#15 - y#148 <= 1
cst583: y#149 - x#14 <= 0
cst584: y#149 - x#16 <= 0
cst585: x#14 + x#16 - y#149 <= 1
cst586: y#150 - x#14 <= 0
cst587: y#150 - x#17 <= 0
cst588: x#14 + x#17 - y#150 <= 1
cst589: y#151 - x#15 <= 0
cst590: y#151 - x#16 <= 0
cst591: x#15 + x#16 - y#151 <= 1
cst592: y#152 - x#15 <= 0
cst593: y#152 - x#17 <= 0
cst594: x#15 + x#17 - y#152 <= 1
cst595: y#153 - x#15 <= 0
cst596: y#153 - x#18 <= 0
cst597: x#15 + x#18 - y#153 <= 1
cst598: y#154 - x#16 <= 0
cst599: y#154 - x#17 <= 0
cst600: x#16 + x#17 - y#154 <= 1
cst601: y#155 - x#16 <= 0
cst602: y#155 - x#18 <= 0
cst603: x#16 + x#18 - y#155 <= 1
cst604: y#156 - x#16 <= 0
cst605: y#156 - x#19 <= 0
cst606: x#16 + x#19 - y#156 <= 1
cst607: y#157 - x#17 <= 0
cst608: y#157 - x#18 <= 0
cst609: x#17 + x#18 - y#157 <= 1
cst610: y#158 - x#17 <= 0
cst611: y#158 - x#19 <= 0
cst612: x#17 + x#19 - y#158 <= 1
cst613: y#159 - x#17 <= 0
cst614: y#159 - x#20 <= 0
cst615: x#17 + x#20 - y#159 <= 1
cst616: y#160 - x#18 <= 0
cst617: y#160 - x#19 <= 0
cst618: x#18 + x#19 - y#160 <= 1
cst619: y#161 - x#18 <= 0
cst620: y#161 - x#20 <= 0
cst621: x#18 + x#20 - y#161 <= 1
cst622: y#162 - x#18 <= 0
cst623: y#162 - x#21 <= 0
cst624: x#18 + x#21 - y#162 <= 1
cst625: y#163 - x#19 <= 0
cst626: y#163 - x#20 <= 0
cst627: x#19 + x#20 - y#163 <= 1
cst628: y#164 - x#19 <= 0
cst629: y#164 - x#21 <= 0
cst630: x#19 + x#21 - y#164 <= 1
cst631: y#165 - x#19 <= 0
cst632: y#165 - x#22 <= 0
cst633: x#19 + x#22 - y#165 <= 1
cst634: y#166 - x#20 <= 0
cst635: y#166 - x#21 <= 0
cst636: x#20 + x#21 - y#166 <= 1
cst637: y#167 - x#20 <= 0
cst638: y#167 - x#22 <= 0
cst639: x#20 + x#22 - y#167 <= 1
cst640: y#168 - x#20 <= 0
cst641: y#168 - x#23 <= 0
cst642: x#20 + x#23 - y#168 <= 1
cst643: y#169 - x#21 <= 0
cst644: y#169 - x#22 <= 0
cst645: x#21 + x#22 - y#169 <= 1
cst646: y#170 - x#21 <= 0
cst647: y#170 - x#23 <= 0
cst648: x#21 + x#23 - y#170 <= 1
cst649: y#171 - x#21 <= 0
cst650: y#171 - x#24 <= 0
cst651: x#21 + x#24 - y#171 <= 1
cst652: y#172 - x#22 <= 0
cst653: y#172 - x#23 <= 0
cst654: x#22 + x#23 - y#172 <= 1
cst655: y#173 - x#22 <= 0
cst656: y#173 - x#24 <= 0
cst657: x#22 + x#24 - y#173 <= 1
cst658: y#174 - x#22 <= 0
cst659: y#174 - x#25 <= 0
cst660: x#22 + x#25 - y#174 <= 1
cst661: y#175 - x#23 <= 0
cst662: y#175 - x#24 <= 0
cst663: x#23 + x#24 - y#175 <= 1
cst664: y#176 - x#23 <= 0
cst665: y#176 - x#25 <= 0
cst666: x#23 + x#25 - y#176 <= 1
cst667: y#177 - x#23 <= 0
cst668: y#177 - x#26 <= 0
cst669: x#23 + x#26 - y#177 <= 1
cst670: y#178 - x#24 <= 0
cst671: y#178 - x#25 <= 0
cst672: x#24 + x#25 - y#178 <= 1
cst673: y#179 - x#24 <= 0
cst674: y#179 - x#26 <= 0
cst675: x#24 + x#26 - y#179 <= 1
cst676: y#180 - x#24 <= 0
cst677: y#180 - x#27 <= 0
cst678: x#24 + x#27 - y#180 <= 1
cst679: y#181 - x#25 <= 0
cst680: y#181 - x#26 <= 0
cst681: x#25 + x#26 - y#181 <= 1
cst682: y#182 - x#25 <= 0
cst683: y#182 - x#27 <= 0
cst684: x#25 + x#27 - y#182 <= 1
cst685: y#183 - x#25 <= 0
cst686: y#183 - x#28 <= 0
cst687: x#25 + x#28 - y#183 <= 1
cst688: y#184 - x#26 <= 0
cst689: y#184 - x#27 <= 0
cst690: x#26 + x#27 - y#184 <= 1
cst691: y#185 - x#26 <= 0
cst692: y#185 - x#28 <= 0
cst693: x#26 + x#28 - y#185 <= 1
cst694: y#186 - x#26 <= 0
cst695: y#186 - x#29 <= 0
cst696: x#26 + x#29 - y#186 <= 1
cst697: y#187 - x#27 <= 0
cst698: y#187 - x#28 <= 0
cst699: x#27 + x#28 - y#187 <= 1
cst700: y#188 - x#27 <= 0
cst701: y#188 - x#29 <= 0
cst702: x#27 + x#29 - y#188 <= 1
cst703: y#189 - x#27 <= 0
cst704: y#189 - x#30 <= 0
cst705: x#27 + x#30 - y#189 <= 1
cst706: y#190 - x#28 <= 0
cst707: y#190 - x#29 <= 0
cst708: x#28 + x#29 - y#190 <= 1
cst709: y#191 - x#28 <= 0
cst710: y#191 - x#30 <= 0
cst711: x#28 + x#30 - y#191 <= 1
cst712: y#192 - x#29 <= 0
cst713: y#192 - x#30 <= 0
cst714: x#29 + x#30 - y#192 <= 1
cst715: y#193 - x#1 <= 0
cst716: x#1 - y#193 <= 0
cst717: y#194 - x#2 <= 0
cst718: x#2 - y#194 <= 0
cst719: y#195 - x#3 <= 0
cst720: x#3 - y#195 <= 0
cst721: y#196 - x#4 <= 0
cst722: x#4 - y#196 <= 0
cst723: y#197 - x#5 <= 0
cst724: x#5 - y#197 <= 0
cst725: y#198 - x#6 <= 0
cst726: x#6 - y#198 <= 0
cst727: y#199 - x#7 <= 0
cst728: x#7 - y#199 <= 0
cst729: y#200 - x#8 <= 0
cst730: x#8 - y#200 <= 0
cst731: y#201 - x#9 <= 0
cst732: x#9 - y#201 <= 0
cst733: y#202 - x#10 <= 0
cst734: x#10 - y#202 <= 0
cst735: y#203 - x#11 <= 0
cst736: x#11 - y#203 <= 0
cst737: y#204 - x#12 <= 0
cst738: x#12 - y#204 <= 0
cst739: y#205 - x#13 <= 0
cst740: x#13 - y#205 <= 0
cst741: y#206 - x#14 <= 0
cst742: x#14 - y#206 <= 0
cst743: y#207 - x#15 <= 0
cst744: x#15 - y#207 <= 0
cst745: y#208 - x#16 <= 0
cst746: x#16 - y#208 <= 0
cst747: y#209 - x#17 <= 0
cst748: x#17 - y#209 <= 0
cst749: y#210 - x#18 <= 0
cst750: x#18 - y#210 <= 0
cst751: y#211 - x#19 <= 0
cst752: x#19 - y#211 <= 0
cst753: y#212 - x#20 <= 0
cst754: x#20 - y#212 <= 0
cst755: y#213 - x#21 <= 0
cst756: x#21 - y#213 <= 0
cst757: y#214 - x#22 <= 0
cst758: x#22 - y#214 <= 0
cst759: y#215 - x#23 <= 0
cst760: x#23 - y#215 <= 0
cst761: y#216 - x#24 <= 0
cst762: x#24 - y#216 <= 0
cst763: y#217 - x#25 <= 0
cst764: x#25 - y#217 <= 0
cst765: y#218 - x#26 <= 0
cst766: x#26 - y#218 <= 0
cst767: y#219 - x#27 <= 0
cst768: x#27 - y#219 <= 0
cst769: y#220 - x#28 <= 0
cst770: x#28 - y#220 <= 0
cst771: y#221 - x#29 <= 0
cst772: x#29 - y#221 <= 0
cst773: y#222 - x#30 <= 0
cst774: x#30 - y#222 <= 0
Bounds
z free
Binary
x#1 x#2 x#3 x#4 x#5 x#6 x#7 x#8 x#9 x#10 x#11 x#12 x#13 x#14 x#15 x#16 x#17 x#18 x#19 x#20 x#21 x#22 x#23 x#24 x#25 x#26 x#27 x#28 x#29 x#30y#0 y#1 y#2 y#3 y#4 y#5 y#6 y#7 y#8 y#9 y#10 y#11 y#12 y#13 y#14 y#15 y#16 y#17 y#18 y#19 y#20 y#21 y#22 y#23 y#24 y#25 y#26 y#27 y#28 y#29 y#30 y#31 y#32 y#33 y#34 y#35 y#36 y#37 y#38 y#39 y#40 y#41 y#42 y#43 y#44 y#45 y#46 y#47 y#48 y#49 y#50 y#51 y#52 y#53 y#54 y#55 y#56 y#57 y#58 y#59 y#60 y#61 y#62 y#63 y#64 y#65 y#66 y#67 y#68 y#69 y#70 y#71 y#72 y#73 y#74 y#75 y#76 y#77 y#78 y#79 y#80 y#81 y#82 y#83 y#84 y#85 y#86 y#87 y#88 y#89 y#90 y#91 y#92 y#93 y#94 y#95 y#96 y#97 y#98 y#99 y#100 y#101 y#102 y#103 y#104 y#105 y#106 y#107 y#108 y#109 y#110 y#111 y#112 y#113 y#114 y#115 y#116 y#117 y#118 y#119 y#120 y#121 y#122 y#123 y#124 y#125 y#126 y#127 y#128 y#129 y#130 y#131 y#132 y#133 y#134 y#135 y#136 y#137 y#138 y#139 y#140 y#141 y#142 y#143 y#144 y#145 y#146 y#147 y#148 y#149 y#150 y#151 y#152 y#153 y#154 y#155 y#156 y#157 y#158 y#159 y#160 y#161 y#162 y#163 y#164 y#165 y#166 y#167 y#168 y#169 y#170 y#171 y#172 y#173 y#174 y#175 y#176 y#177 y#178 y#179 y#180 y#181 y#182 y#183 y#184 y#185 y#186 y#187 y#188 y#189 y#190 y#191 y#192 y#193 y#194 y#195 y#196 y#197 y#198 y#199 y#200 y#201 y#202 y#203 y#204 y#205 y#206 y#207 y#208 y#209 y#210 y#211 y#212 y#213 y#214 y#215 y#216 y#217 y#218 y#219 y#220 y#221 y#222
End
